p cnf 289 1
289 0
w 1 0.176017
w 2 1 0
w 2 -1 1
w 3 2 0
w 3 -2 1
w 4 3 0.582185
w 4 -3 0.47858
w 5 4 0
w 5 -4 1
w 6 5 0
w 6 -5 1
w 7 6 0.863413
w 7 -6 0.281854
w 8 7 0.615935
w 8 -7 0.588928
w 9 8 1
w 9 -8 0
w 10 9 1
w 10 -9 0
w 11 10 0
w 11 -10 1
w 12 11 0
w 12 -11 1
w 13 12 1
w 13 -12 0
w 14 13 1
w 14 -13 0
w 15 14 0.775831
w 15 -14 0.835902
w 16 15 0
w 16 -15 1
w 17 16 0
w 17 -16 1
w 18 1 0
w 18 -1 1
w 19 18 2 0
w 19 18 -2 1
w 19 -18 2 0
w 19 -18 -2 1
w 20 19 3 0.332374
w 20 19 -3 0.40685
w 20 -19 3 0.429928
w 20 -19 -3 0.921302
w 21 20 4 1
w 21 20 -4 0
w 21 -20 4 0
w 21 -20 -4 0
w 22 21 5 1
w 22 21 -5 0
w 22 -21 5 1
w 22 -21 -5 0
w 23 22 6 1
w 23 22 -6 1
w 23 -22 6 0
w 23 -22 -6 1
w 24 23 7 0
w 24 23 -7 0
w 24 -23 7 1
w 24 -23 -7 0
w 25 24 8 1
w 25 24 -8 0
w 25 -24 8 0
w 25 -24 -8 1
w 26 25 9 1
w 26 25 -9 0
w 26 -25 9 1
w 26 -25 -9 0
w 27 26 10 0.124832
w 27 26 -10 0.743926
w 27 -26 10 0.818993
w 27 -26 -10 0.334282
w 28 27 11 0.943632
w 28 27 -11 0.00360824
w 28 -27 11 0.504107
w 28 -27 -11 0.0808115
w 29 28 12 1
w 29 28 -12 0
w 29 -28 12 1
w 29 -28 -12 1
w 30 29 13 1
w 30 29 -13 1
w 30 -29 13 1
w 30 -29 -13 0
w 31 30 14 1
w 31 30 -14 1
w 31 -30 14 0
w 31 -30 -14 1
w 32 31 15 0.993623
w 32 31 -15 0.864683
w 32 -31 15 0.728276
w 32 -31 -15 0.118455
w 33 32 16 0
w 33 32 -16 1
w 33 -32 16 0
w 33 -32 -16 1
w 34 33 17 1
w 34 33 -17 1
w 34 -33 17 0
w 34 -33 -17 0
w 35 18 1
w 35 -18 0
w 36 35 19 0
w 36 35 -19 1
w 36 -35 19 1
w 36 -35 -19 1
w 37 36 20 0.600796
w 37 36 -20 0.194832
w 37 -36 20 0.256984
w 37 -36 -20 0.628891
w 38 37 21 0.201707
w 38 37 -21 0.936324
w 38 -37 21 0.855449
w 38 -37 -21 0.077555
w 39 38 22 0.720132
w 39 38 -22 0.805831
w 39 -38 22 0.0484026
w 39 -38 -22 0.328741
w 40 39 23 0
w 40 39 -23 1
w 40 -39 23 0
w 40 -39 -23 0
w 41 40 24 0
w 41 40 -24 0
w 41 -40 24 0
w 41 -40 -24 1
w 42 41 25 0.216509
w 42 41 -25 0.16112
w 42 -41 25 0.411103
w 42 -41 -25 0.371486
w 43 42 26 0
w 43 42 -26 0
w 43 -42 26 0
w 43 -42 -26 1
w 44 43 27 0
w 44 43 -27 0
w 44 -43 27 0
w 44 -43 -27 1
w 45 44 28 0
w 45 44 -28 1
w 45 -44 28 0
w 45 -44 -28 0
w 46 45 29 0
w 46 45 -29 1
w 46 -45 29 0
w 46 -45 -29 0
w 47 46 30 0
w 47 46 -30 0
w 47 -46 30 1
w 47 -46 -30 0
w 48 47 31 0
w 48 47 -31 1
w 48 -47 31 1
w 48 -47 -31 1
w 49 48 32 0.442324
w 49 48 -32 0.644337
w 49 -48 32 0.131617
w 49 -48 -32 0.0831133
w 50 49 33 0
w 50 49 -33 1
w 50 -49 33 0
w 50 -49 -33 0
w 51 50 34 1
w 51 50 -34 0
w 51 -50 34 0
w 51 -50 -34 0
w 52 35 0.568734
w 52 -35 0.063648
w 53 52 36 0.242927
w 53 52 -36 0.0906743
w 53 -52 36 0.314845
w 53 -52 -36 0.282914
w 54 53 37 1
w 54 53 -37 0
w 54 -53 37 0
w 54 -53 -37 0
w 55 54 38 1
w 55 54 -38 1
w 55 -54 38 0
w 55 -54 -38 1
w 56 55 39 1
w 56 55 -39 0
w 56 -55 39 0
w 56 -55 -39 0
w 57 56 40 1
w 57 56 -40 0
w 57 -56 40 0
w 57 -56 -40 0
w 58 57 41 0
w 58 57 -41 1
w 58 -57 41 1
w 58 -57 -41 0
w 59 58 42 1
w 59 58 -42 0
w 59 -58 42 1
w 59 -58 -42 0
w 60 59 43 1
w 60 59 -43 0
w 60 -59 43 0
w 60 -59 -43 1
w 61 60 44 0
w 61 60 -44 0
w 61 -60 44 0
w 61 -60 -44 1
w 62 61 45 1
w 62 61 -45 1
w 62 -61 45 0
w 62 -61 -45 0
w 63 62 46 0
w 63 62 -46 0
w 63 -62 46 0
w 63 -62 -46 1
w 64 63 47 1
w 64 63 -47 0
w 64 -63 47 0
w 64 -63 -47 1
w 65 64 48 0
w 65 64 -48 1
w 65 -64 48 1
w 65 -64 -48 1
w 66 65 49 0
w 66 65 -49 0
w 66 -65 49 1
w 66 -65 -49 0
w 67 66 50 1
w 67 66 -50 1
w 67 -66 50 0
w 67 -66 -50 0
w 68 67 51 0
w 68 67 -51 0
w 68 -67 51 1
w 68 -67 -51 0
w 69 52 0.510823
w 69 -52 0.938514
w 70 69 53 0
w 70 69 -53 0
w 70 -69 53 0
w 70 -69 -53 1
w 71 70 54 0.969358
w 71 70 -54 0.99483
w 71 -70 54 0.108639
w 71 -70 -54 0.831179
w 72 71 55 0
w 72 71 -55 1
w 72 -71 55 1
w 72 -71 -55 0
w 73 72 56 0.633306
w 73 72 -56 0.29445
w 73 -72 56 0.821613
w 73 -72 -56 0.747369
w 74 73 57 0.510817
w 74 73 -57 0.921617
w 74 -73 57 0.0547558
w 74 -73 -57 0.789421
w 75 74 58 0
w 75 74 -58 1
w 75 -74 58 0
w 75 -74 -58 1
w 76 75 59 0
w 76 75 -59 1
w 76 -75 59 1
w 76 -75 -59 1
w 77 76 60 1
w 77 76 -60 0
w 77 -76 60 0
w 77 -76 -60 1
w 78 77 61 0.594148
w 78 77 -61 0.872117
w 78 -77 61 0.363739
w 78 -77 -61 0.354119
w 79 78 62 1
w 79 78 -62 1
w 79 -78 62 1
w 79 -78 -62 0
w 80 79 63 1
w 80 79 -63 0
w 80 -79 63 1
w 80 -79 -63 1
w 81 80 64 1
w 81 80 -64 0
w 81 -80 64 0
w 81 -80 -64 0
w 82 81 65 1
w 82 81 -65 1
w 82 -81 65 0
w 82 -81 -65 0
w 83 82 66 1
w 83 82 -66 0
w 83 -82 66 0
w 83 -82 -66 1
w 84 83 67 1
w 84 83 -67 0
w 84 -83 67 1
w 84 -83 -67 1
w 85 84 68 0.63619
w 85 84 -68 0.0289294
w 85 -84 68 0.4111
w 85 -84 -68 0.133404
w 86 69 0.0487077
w 86 -69 0.141435
w 87 86 70 1
w 87 86 -70 1
w 87 -86 70 1
w 87 -86 -70 0
w 88 87 71 1
w 88 87 -71 1
w 88 -87 71 0
w 88 -87 -71 0
w 89 88 72 0
w 89 88 -72 0
w 89 -88 72 0
w 89 -88 -72 1
w 90 89 73 0
w 90 89 -73 1
w 90 -89 73 1
w 90 -89 -73 1
w 91 90 74 0.455994
w 91 90 -74 0.0480346
w 91 -90 74 0.65089
w 91 -90 -74 0.0921846
w 92 91 75 1
w 92 91 -75 0
w 92 -91 75 1
w 92 -91 -75 0
w 93 92 76 1
w 93 92 -76 1
w 93 -92 76 0
w 93 -92 -76 0
w 94 93 77 0
w 94 93 -77 1
w 94 -93 77 1
w 94 -93 -77 0
w 95 94 78 0
w 95 94 -78 1
w 95 -94 78 1
w 95 -94 -78 1
w 96 95 79 1
w 96 95 -79 1
w 96 -95 79 1
w 96 -95 -79 0
w 97 96 80 0
w 97 96 -80 0
w 97 -96 80 0
w 97 -96 -80 1
w 98 97 81 1
w 98 97 -81 0
w 98 -97 81 0
w 98 -97 -81 1
w 99 98 82 1
w 99 98 -82 1
w 99 -98 82 1
w 99 -98 -82 0
w 100 99 83 0
w 100 99 -83 0
w 100 -99 83 0
w 100 -99 -83 1
w 101 100 84 1
w 101 100 -84 1
w 101 -100 84 1
w 101 -100 -84 0
w 102 101 85 1
w 102 101 -85 0
w 102 -101 85 1
w 102 -101 -85 1
w 103 86 1
w 103 -86 0
w 104 103 87 0
w 104 103 -87 0
w 104 -103 87 0
w 104 -103 -87 1
w 105 104 88 1
w 105 104 -88 0
w 105 -104 88 1
w 105 -104 -88 1
w 106 105 89 0
w 106 105 -89 0
w 106 -105 89 1
w 106 -105 -89 0
w 107 106 90 1
w 107 106 -90 1
w 107 -106 90 1
w 107 -106 -90 0
w 108 107 91 0
w 108 107 -91 1
w 108 -107 91 0
w 108 -107 -91 0
w 109 108 92 0
w 109 108 -92 1
w 109 -108 92 1
w 109 -108 -92 1
w 110 109 93 1
w 110 109 -93 0
w 110 -109 93 1
w 110 -109 -93 1
w 111 110 94 1
w 111 110 -94 0
w 111 -110 94 1
w 111 -110 -94 1
w 112 111 95 1
w 112 111 -95 0
w 112 -111 95 0
w 112 -111 -95 0
w 113 112 96 0
w 113 112 -96 1
w 113 -112 96 1
w 113 -112 -96 0
w 114 113 97 1
w 114 113 -97 1
w 114 -113 97 0
w 114 -113 -97 1
w 115 114 98 0
w 115 114 -98 1
w 115 -114 98 1
w 115 -114 -98 1
w 116 115 99 1
w 116 115 -99 0
w 116 -115 99 1
w 116 -115 -99 0
w 117 116 100 1
w 117 116 -100 1
w 117 -116 100 0
w 117 -116 -100 0
w 118 117 101 0.647115
w 118 117 -101 0.368459
w 118 -117 101 0.74786
w 118 -117 -101 0.970424
w 119 118 102 1
w 119 118 -102 1
w 119 -118 102 1
w 119 -118 -102 0
w 120 103 0
w 120 -103 1
w 121 120 104 1
w 121 120 -104 0
w 121 -120 104 0
w 121 -120 -104 1
w 122 121 105 1
w 122 121 -105 0
w 122 -121 105 1
w 122 -121 -105 0
w 123 122 106 0
w 123 122 -106 0
w 123 -122 106 1
w 123 -122 -106 0
w 124 123 107 0.794021
w 124 123 -107 0.849191
w 124 -123 107 0.571025
w 124 -123 -107 0.701527
w 125 124 108 0
w 125 124 -108 0
w 125 -124 108 1
w 125 -124 -108 0
w 126 125 109 0
w 126 125 -109 1
w 126 -125 109 1
w 126 -125 -109 0
w 127 126 110 0.138127
w 127 126 -110 0.872392
w 127 -126 110 0.509691
w 127 -126 -110 0.447674
w 128 127 111 0.833223
w 128 127 -111 0.643495
w 128 -127 111 0.709872
w 128 -127 -111 0.577552
w 129 128 112 0
w 129 128 -112 0
w 129 -128 112 1
w 129 -128 -112 1
w 130 129 113 0.0423693
w 130 129 -113 0.0578719
w 130 -129 113 0.83949
w 130 -129 -113 0.613395
w 131 130 114 0.335796
w 131 130 -114 0.552879
w 131 -130 114 0.208787
w 131 -130 -114 0.802525
w 132 131 115 1
w 132 131 -115 1
w 132 -131 115 0
w 132 -131 -115 0
w 133 132 116 0.181731
w 133 132 -116 0.952461
w 133 -132 116 0.659477
w 133 -132 -116 0.691422
w 134 133 117 1
w 134 133 -117 0
w 134 -133 117 0
w 134 -133 -117 0
w 135 134 118 1
w 135 134 -118 0
w 135 -134 118 0
w 135 -134 -118 0
w 136 135 119 0
w 136 135 -119 1
w 136 -135 119 0
w 136 -135 -119 0
w 137 120 1
w 137 -120 0
w 138 137 121 0.745722
w 138 137 -121 0.540007
w 138 -137 121 0.623724
w 138 -137 -121 0.785118
w 139 138 122 1
w 139 138 -122 0
w 139 -138 122 0
w 139 -138 -122 1
w 140 139 123 1
w 140 139 -123 1
w 140 -139 123 0
w 140 -139 -123 1
w 141 140 124 0
w 141 140 -124 0
w 141 -140 124 1
w 141 -140 -124 1
w 142 141 125 0.358798
w 142 141 -125 0.399832
w 142 -141 125 0.271846
w 142 -141 -125 0.00471119
w 143 142 126 0.843667
w 143 142 -126 0.490115
w 143 -142 126 0.172124
w 143 -142 -126 0.174888
w 144 143 127 0
w 144 143 -127 0
w 144 -143 127 0
w 144 -143 -127 1
w 145 144 128 0.310393
w 145 144 -128 0.906153
w 145 -144 128 0.971527
w 145 -144 -128 0.472832
w 146 145 129 0
w 146 145 -129 1
w 146 -145 129 1
w 146 -145 -129 1
w 147 146 130 0
w 147 146 -130 1
w 147 -146 130 1
w 147 -146 -130 0
w 148 147 131 1
w 148 147 -131 1
w 148 -147 131 1
w 148 -147 -131 0
w 149 148 132 0
w 149 148 -132 1
w 149 -148 132 1
w 149 -148 -132 0
w 150 149 133 1
w 150 149 -133 1
w 150 -149 133 0
w 150 -149 -133 1
w 151 150 134 0.811701
w 151 150 -134 0.0819565
w 151 -150 134 0.72021
w 151 -150 -134 0.783228
w 152 151 135 1
w 152 151 -135 1
w 152 -151 135 1
w 152 -151 -135 0
w 153 152 136 0
w 153 152 -136 0
w 153 -152 136 0
w 153 -152 -136 1
w 154 137 1
w 154 -137 0
w 155 154 138 0
w 155 154 -138 0
w 155 -154 138 0
w 155 -154 -138 1
w 156 155 139 0
w 156 155 -139 1
w 156 -155 139 0
w 156 -155 -139 0
w 157 156 140 0.601529
w 157 156 -140 0.217473
w 157 -156 140 0.692879
w 157 -156 -140 0.41323
w 158 157 141 1
w 158 157 -141 0
w 158 -157 141 0
w 158 -157 -141 0
w 159 158 142 0.703755
w 159 158 -142 0.803071
w 159 -158 142 0.0294047
w 159 -158 -142 0.15796
w 160 159 143 0
w 160 159 -143 1
w 160 -159 143 1
w 160 -159 -143 1
w 161 160 144 1
w 161 160 -144 1
w 161 -160 144 0
w 161 -160 -144 0
w 162 161 145 0
w 162 161 -145 0
w 162 -161 145 1
w 162 -161 -145 1
w 163 162 146 1
w 163 162 -146 0
w 163 -162 146 0
w 163 -162 -146 0
w 164 163 147 0
w 164 163 -147 1
w 164 -163 147 0
w 164 -163 -147 0
w 165 164 148 1
w 165 164 -148 1
w 165 -164 148 1
w 165 -164 -148 0
w 166 165 149 1
w 166 165 -149 1
w 166 -165 149 1
w 166 -165 -149 0
w 167 166 150 0
w 167 166 -150 1
w 167 -166 150 1
w 167 -166 -150 0
w 168 167 151 0
w 168 167 -151 0
w 168 -167 151 0
w 168 -167 -151 1
w 169 168 152 1
w 169 168 -152 1
w 169 -168 152 0
w 169 -168 -152 1
w 170 169 153 0
w 170 169 -153 1
w 170 -169 153 0
w 170 -169 -153 0
w 171 154 0
w 171 -154 1
w 172 171 155 0
w 172 171 -155 1
w 172 -171 155 1
w 172 -171 -155 0
w 173 172 156 0.141271
w 173 172 -156 0.421446
w 173 -172 156 0.503896
w 173 -172 -156 0.617794
w 174 173 157 1
w 174 173 -157 0
w 174 -173 157 1
w 174 -173 -157 1
w 175 174 158 1
w 175 174 -158 1
w 175 -174 158 1
w 175 -174 -158 0
w 176 175 159 0.102646
w 176 175 -159 0.930052
w 176 -175 159 0.246234
w 176 -175 -159 0.337988
w 177 176 160 1
w 177 176 -160 1
w 177 -176 160 0
w 177 -176 -160 1
w 178 177 161 0
w 178 177 -161 1
w 178 -177 161 1
w 178 -177 -161 1
w 179 178 162 0.332351
w 179 178 -162 0.013184
w 179 -178 162 0.247532
w 179 -178 -162 0.836247
w 180 179 163 1
w 180 179 -163 0
w 180 -179 163 0
w 180 -179 -163 0
w 181 180 164 0.824828
w 181 180 -164 0.660917
w 181 -180 164 0.177431
w 181 -180 -164 0.738766
w 182 181 165 0
w 182 181 -165 1
w 182 -181 165 0
w 182 -181 -165 0
w 183 182 166 1
w 183 182 -166 1
w 183 -182 166 0
w 183 -182 -166 1
w 184 183 167 1
w 184 183 -167 0
w 184 -183 167 0
w 184 -183 -167 0
w 185 184 168 0
w 185 184 -168 1
w 185 -184 168 0
w 185 -184 -168 1
w 186 185 169 1
w 186 185 -169 0
w 186 -185 169 0
w 186 -185 -169 0
w 187 186 170 1
w 187 186 -170 0
w 187 -186 170 1
w 187 -186 -170 1
w 188 171 0.567484
w 188 -171 0.501679
w 189 188 172 0
w 189 188 -172 1
w 189 -188 172 0
w 189 -188 -172 0
w 190 189 173 0.880383
w 190 189 -173 0.21564
w 190 -189 173 0.141974
w 190 -189 -173 0.655359
w 191 190 174 0
w 191 190 -174 0
w 191 -190 174 1
w 191 -190 -174 0
w 192 191 175 0
w 192 191 -175 1
w 192 -191 175 0
w 192 -191 -175 0
w 193 192 176 0
w 193 192 -176 0
w 193 -192 176 0
w 193 -192 -176 1
w 194 193 177 0
w 194 193 -177 1
w 194 -193 177 1
w 194 -193 -177 0
w 195 194 178 1
w 195 194 -178 1
w 195 -194 178 0
w 195 -194 -178 1
w 196 195 179 0.0727996
w 196 195 -179 0.712319
w 196 -195 179 0.104265
w 196 -195 -179 0.214773
w 197 196 180 1
w 197 196 -180 1
w 197 -196 180 0
w 197 -196 -180 0
w 198 197 181 0
w 198 197 -181 1
w 198 -197 181 0
w 198 -197 -181 0
w 199 198 182 0
w 199 198 -182 1
w 199 -198 182 0
w 199 -198 -182 0
w 200 199 183 0
w 200 199 -183 1
w 200 -199 183 1
w 200 -199 -183 1
w 201 200 184 0.481571
w 201 200 -184 0.224123
w 201 -200 184 0.993537
w 201 -200 -184 0.313508
w 202 201 185 0
w 202 201 -185 0
w 202 -201 185 1
w 202 -201 -185 1
w 203 202 186 0
w 203 202 -186 0
w 203 -202 186 1
w 203 -202 -186 0
w 204 203 187 0
w 204 203 -187 0
w 204 -203 187 1
w 204 -203 -187 0
w 205 188 1
w 205 -188 0
w 206 205 189 1
w 206 205 -189 0
w 206 -205 189 1
w 206 -205 -189 0
w 207 206 190 0
w 207 206 -190 1
w 207 -206 190 1
w 207 -206 -190 0
w 208 207 191 1
w 208 207 -191 0
w 208 -207 191 1
w 208 -207 -191 0
w 209 208 192 1
w 209 208 -192 1
w 209 -208 192 1
w 209 -208 -192 0
w 210 209 193 1
w 210 209 -193 0
w 210 -209 193 1
w 210 -209 -193 0
w 211 210 194 0
w 211 210 -194 0
w 211 -210 194 0
w 211 -210 -194 1
w 212 211 195 0.0533889
w 212 211 -195 0.783495
w 212 -211 195 0.334356
w 212 -211 -195 0.238889
w 213 212 196 0
w 213 212 -196 0
w 213 -212 196 0
w 213 -212 -196 1
w 214 213 197 0
w 214 213 -197 1
w 214 -213 197 0
w 214 -213 -197 1
w 215 214 198 1
w 215 214 -198 0
w 215 -214 198 1
w 215 -214 -198 0
w 216 215 199 0
w 216 215 -199 0
w 216 -215 199 1
w 216 -215 -199 0
w 217 216 200 0
w 217 216 -200 0
w 217 -216 200 1
w 217 -216 -200 1
w 218 217 201 0
w 218 217 -201 0
w 218 -217 201 1
w 218 -217 -201 1
w 219 218 202 0
w 219 218 -202 1
w 219 -218 202 1
w 219 -218 -202 1
w 220 219 203 0
w 220 219 -203 0
w 220 -219 203 0
w 220 -219 -203 1
w 221 220 204 0.0764612
w 221 220 -204 0.0927093
w 221 -220 204 0.920334
w 221 -220 -204 0.485228
w 222 205 0
w 222 -205 1
w 223 222 206 1
w 223 222 -206 0
w 223 -222 206 0
w 223 -222 -206 1
w 224 223 207 1
w 224 223 -207 0
w 224 -223 207 1
w 224 -223 -207 1
w 225 224 208 0
w 225 224 -208 0
w 225 -224 208 1
w 225 -224 -208 0
w 226 225 209 1
w 226 225 -209 1
w 226 -225 209 0
w 226 -225 -209 0
w 227 226 210 0.862495
w 227 226 -210 0.327825
w 227 -226 210 0.0638468
w 227 -226 -210 0.699474
w 228 227 211 1
w 228 227 -211 0
w 228 -227 211 0
w 228 -227 -211 0
w 229 228 212 0
w 229 228 -212 1
w 229 -228 212 0
w 229 -228 -212 0
w 230 229 213 0.27102
w 230 229 -213 0.775634
w 230 -229 213 0.0850867
w 230 -229 -213 0.320219
w 231 230 214 1
w 231 230 -214 1
w 231 -230 214 1
w 231 -230 -214 0
w 232 231 215 0.701014
w 232 231 -215 0.44411
w 232 -231 215 0.966881
w 232 -231 -215 0.802388
w 233 232 216 1
w 233 232 -216 0
w 233 -232 216 1
w 233 -232 -216 1
w 234 233 217 0
w 234 233 -217 1
w 234 -233 217 1
w 234 -233 -217 0
w 235 234 218 1
w 235 234 -218 1
w 235 -234 218 0
w 235 -234 -218 1
w 236 235 219 1
w 236 235 -219 0
w 236 -235 219 0
w 236 -235 -219 0
w 237 236 220 1
w 237 236 -220 1
w 237 -236 220 0
w 237 -236 -220 1
w 238 237 221 1
w 238 237 -221 0
w 238 -237 221 1
w 238 -237 -221 1
w 239 222 0.493902
w 239 -222 0.176095
w 240 239 223 0.858259
w 240 239 -223 0.246327
w 240 -239 223 0.132688
w 240 -239 -223 0.842425
w 241 240 224 1
w 241 240 -224 1
w 241 -240 224 0
w 241 -240 -224 1
w 242 241 225 1
w 242 241 -225 0
w 242 -241 225 1
w 242 -241 -225 1
w 243 242 226 1
w 243 242 -226 0
w 243 -242 226 1
w 243 -242 -226 0
w 244 243 227 1
w 244 243 -227 0
w 244 -243 227 0
w 244 -243 -227 0
w 245 244 228 1
w 245 244 -228 1
w 245 -244 228 1
w 245 -244 -228 0
w 246 245 229 1
w 246 245 -229 1
w 246 -245 229 1
w 246 -245 -229 0
w 247 246 230 1
w 247 246 -230 0
w 247 -246 230 0
w 247 -246 -230 1
w 248 247 231 0
w 248 247 -231 1
w 248 -247 231 1
w 248 -247 -231 1
w 249 248 232 0
w 249 248 -232 0
w 249 -248 232 0
w 249 -248 -232 1
w 250 249 233 0
w 250 249 -233 0
w 250 -249 233 1
w 250 -249 -233 0
w 251 250 234 1
w 251 250 -234 1
w 251 -250 234 1
w 251 -250 -234 0
w 252 251 235 0
w 252 251 -235 1
w 252 -251 235 0
w 252 -251 -235 1
w 253 252 236 1
w 253 252 -236 1
w 253 -252 236 0
w 253 -252 -236 0
w 254 253 237 0.689081
w 254 253 -237 0.262381
w 254 -253 237 0.0328305
w 254 -253 -237 0.083068
w 255 254 238 0.36381
w 255 254 -238 0.978485
w 255 -254 238 0.219106
w 255 -254 -238 0.768665
w 256 239 0
w 256 -239 1
w 257 256 240 0.574681
w 257 256 -240 0.430545
w 257 -256 240 0.155789
w 257 -256 -240 0.269772
w 258 257 241 1
w 258 257 -241 0
w 258 -257 241 0
w 258 -257 -241 0
w 259 258 242 1
w 259 258 -242 0
w 259 -258 242 0
w 259 -258 -242 1
w 260 259 243 0
w 260 259 -243 1
w 260 -259 243 1
w 260 -259 -243 1
w 261 260 244 0
w 261 260 -244 1
w 261 -260 244 1
w 261 -260 -244 0
w 262 261 245 1
w 262 261 -245 1
w 262 -261 245 0
w 262 -261 -245 0
w 263 262 246 0
w 263 262 -246 0
w 263 -262 246 0
w 263 -262 -246 1
w 264 263 247 0
w 264 263 -247 0
w 264 -263 247 0
w 264 -263 -247 1
w 265 264 248 0
w 265 264 -248 1
w 265 -264 248 0
w 265 -264 -248 1
w 266 265 249 0
w 266 265 -249 0
w 266 -265 249 1
w 266 -265 -249 0
w 267 266 250 1
w 267 266 -250 1
w 267 -266 250 0
w 267 -266 -250 1
w 268 267 251 0
w 268 267 -251 0
w 268 -267 251 1
w 268 -267 -251 0
w 269 268 252 1
w 269 268 -252 0
w 269 -268 252 1
w 269 -268 -252 0
w 270 269 253 1
w 270 269 -253 0
w 270 -269 253 1
w 270 -269 -253 1
w 271 270 254 1
w 271 270 -254 1
w 271 -270 254 0
w 271 -270 -254 1
w 272 271 255 0.576884
w 272 271 -255 0.70813
w 272 -271 255 0.305329
w 272 -271 -255 0.741101
w 273 256 0
w 273 -256 1
w 274 273 257 0.784406
w 274 273 -257 0.273559
w 274 -273 257 0.67405
w 274 -273 -257 0.278707
w 275 274 258 0.575258
w 275 274 -258 0.541062
w 275 -274 258 0.660071
w 275 -274 -258 0.66449
w 276 275 259 1
w 276 275 -259 1
w 276 -275 259 0
w 276 -275 -259 0
w 277 276 260 0
w 277 276 -260 1
w 277 -276 260 0
w 277 -276 -260 0
w 278 277 261 0
w 278 277 -261 0
w 278 -277 261 0
w 278 -277 -261 1
w 279 278 262 1
w 279 278 -262 0
w 279 -278 262 1
w 279 -278 -262 0
w 280 279 263 0
w 280 279 -263 1
w 280 -279 263 0
w 280 -279 -263 0
w 281 280 264 1
w 281 280 -264 0
w 281 -280 264 1
w 281 -280 -264 1
w 282 281 265 0.927601
w 282 281 -265 0.0907112
w 282 -281 265 0.131638
w 282 -281 -265 0.242971
w 283 282 266 0.818429
w 283 282 -266 0.933379
w 283 -282 266 0.385875
w 283 -282 -266 0.134195
w 284 283 267 0
w 284 283 -267 1
w 284 -283 267 0
w 284 -283 -267 0
w 285 284 268 0
w 285 284 -268 0
w 285 -284 268 1
w 285 -284 -268 0
w 286 285 269 0
w 286 285 -269 1
w 286 -285 269 0
w 286 -285 -269 0
w 287 286 270 1
w 287 286 -270 1
w 287 -286 270 0
w 287 -286 -270 0
w 288 287 271 0
w 288 287 -271 0
w 288 -287 271 1
w 288 -287 -271 1
w 289 288 272 1
w 289 288 -272 0
w 289 -288 272 0
w 289 -288 -272 0